unsat
(forall ((A (_ BitVec 1))
         (B (_ BitVec 1))
         (C (_ BitVec 1))
         (D (_ BitVec 1))
         (E (_ BitVec 1))
         (F (_ BitVec 1))
         (G (_ BitVec 1))
         (H (_ BitVec 1))
         (I (_ BitVec 32))
         (J (_ BitVec 1))
         (K (_ BitVec 1))
         (L (_ BitVec 4))
         (M (_ BitVec 4))
         (N (_ BitVec 1))
         (O (_ BitVec 1))
         (P (_ BitVec 1))
         (Q (_ BitVec 1))
         (R (_ BitVec 1))
         (S (_ BitVec 1))
         (T (_ BitVec 1))
         (U (_ BitVec 1))
         (V (_ BitVec 32))
         (W (_ BitVec 2))
         (X (_ BitVec 1))
         (Y (_ BitVec 2))
         (Z (_ BitVec 2))
         (A1 (_ BitVec 5))
         (B1 (_ BitVec 1))
         (C1 (_ BitVec 1))
         (D1 (_ BitVec 1))
         (E1 (_ BitVec 22))
         (F1 (_ BitVec 1))
         (G1 (_ BitVec 1))
         (H1 (_ BitVec 32))
         (I1 (_ BitVec 1))
         (J1 (_ BitVec 1))
         (K1 (_ BitVec 1))
         (L1 (_ BitVec 1))
         (M1 (_ BitVec 36))
         (N1 (_ BitVec 3))
         (O1 (_ BitVec 4))
         (P1 (_ BitVec 1))
         (Q1 (_ BitVec 1))
         (R1 (_ BitVec 22))
         (S1 (_ BitVec 1))
         (T1 (_ BitVec 1))
         (U1 (_ BitVec 1))
         (V1 (_ BitVec 1))
         (W1 (_ BitVec 1))
         (X1 (_ BitVec 1))
         (Y1 (_ BitVec 32))
         (Z1 (_ BitVec 1))
         (A2 (_ BitVec 4))
         (B2 (_ BitVec 1))
         (C2 (_ BitVec 22))
         (D2 (_ BitVec 1)))
  (! (let ((a!1 (or (= Q1 #b1)
                    (not (= B1 #b0))
                    (not (= G1 #b1))
                    (not (= ((_ extract 1 1) W) #b1))))
           (a!2 (or (= Q1 #b1)
                    (not (= G1 #b1))
                    (not (= ((_ extract 1 1) W) #b1))
                    (not (= O #b0))))
           (a!3 (ite (= N #b1)
                     (= ((_ extract 0 0) O1) #b0)
                     (= ((_ extract 1 1) O1) #b0)))
           (a!4 (ite (= N #b1) (not (= ((_ extract 4 1) A1) #x0)) (= D1 #b0)))
           (a!6 (or (not (= ((_ extract 4 1) A1) #x0))
                    (= ((_ extract 0 0) O1) #b0)))
           (a!7 (or (and (= ((_ extract 1 1) O1) #b0)
                         (= ((_ extract 2 2) O1) #b0))
                    (not ((_ bit2bool 0) D1))))
           (a!8 (or (not (= ((_ extract 4 1) A1) #x0)) (= G1 #b0)))
           (a!10 (or (not (= N1 #b011))
                     (ite (or (= N #b0) (= F1 #b0))
                          (= F1 #b1)
                          (= ((_ extract 4 1) A1) #x0))
                     (and (not (= P #b0)) (not (= F1 #b1)))))
           (a!11 (or (= U #b0)
                     (not (= X #b0))
                     (= F1 #b1)
                     (not (= ((_ extract 1 1) N1) #b1))))
           (a!12 (or (= ((_ extract 1 1) O1) #b0)
                     (not (= B1 #b0))
                     (not (= ((_ extract 27 14) H1) ((_ extract 26 13) H1)))
                     (not (= ((_ extract 15 8) H1) ((_ extract 14 7) H1)))))
           (a!13 (or (not (= N1 #b100))
                     (not (= B1 #b0))
                     (not ((_ bit2bool 1) O1))
                     (not (= ((_ extract 15 12) H1) ((_ extract 16 13) H1)))
                     (not (= ((_ extract 11 7) H1) ((_ extract 15 11) H1)))
                     (not (= ((_ extract 23 13) H1) ((_ extract 27 17) H1)))))
           (a!14 (not (= (concat ((_ extract 27 13) H1)
                                 ((_ extract 15 7) H1)
                                 ((_ extract 7 0) H1))
                         H1)))
           (a!15 (not (= (concat ((_ extract 31 17) H1)
                                 ((_ extract 12 4) H1)
                                 ((_ extract 7 0) H1))
                         H1)))
           (a!18 (or (not (= N1 #b010))
                     (not (= B1 #b0))
                     (not ((_ bit2bool 1) O1))
                     (not (= ((_ extract 15 7) H1) ((_ extract 12 4) H1)))
                     (not (= ((_ extract 26 13) H1) ((_ extract 27 14) H1)))))
           (a!19 (not (= H1
                         (concat ((_ extract 31 17) H1)
                                 ((_ extract 12 4) H1)
                                 ((_ extract 7 0) H1)))))
           (a!21 (or (not (= B1 #b0))
                     (not ((_ bit2bool 1) O1))
                     (not (= N #b1))
                     (not (= ((_ extract 15 7) H1) ((_ extract 12 4) H1)))
                     (not (= ((_ extract 15 12) H1) ((_ extract 16 13) H1)))
                     (not (= ((_ extract 23 13) H1) ((_ extract 27 17) H1)))))
           (a!22 (not (= H1
                         (concat ((_ extract 27 13) H1) ((_ extract 16 0) H1)))))
           (a!24 (or (not (= B1 #b0))
                     (= ((_ extract 0 0) O1) #b0)
                     (not (= ((_ extract 11 7) H1) ((_ extract 14 10) H1)))))
           (a!25 (or (not (= B1 #b0))
                     (not ((_ bit2bool 1) O1))
                     (not (= ((_ extract 12 4) H1) ((_ extract 15 7) H1)))
                     (not (= ((_ extract 15 11) H1) ((_ extract 11 7) H1)))))
           (a!27 (or (not ((_ bit2bool 0) O1))
                     (not (= N #b1))
                     ((_ bit2bool 0) I1)
                     (not (= ((_ extract 12 12) I) #b0))))
           (a!28 (or (not (= ((_ extract 4 4) A1) #b0))
                     (not (= ((_ extract 3 3) A1) #b0))
                     (not (= ((_ extract 0 0) A1) #b0))
                     (not (= ((_ extract 2 2) A1) #b0))
                     (not (= ((_ extract 1 1) A1) #b0))))
           (a!32 (or (= Q1 #b1)
                     (= W #b00)
                     (not (= G1 #b1))
                     (not (= ((_ extract 12 12) I) #b0))))
           (a!33 (or (not ((_ bit2bool 2) O1))
                     (not (= ((_ extract 12 0) H1) ((_ extract 16 4) H1)))))
           (a!35 (or (not ((_ bit2bool 1) O1))
                     (not (= ((_ extract 0 0) A1) #b1)))))
     (let ((a!5 (or (not (= ((_ extract 1 1) W) #b1)) a!3 a!4))
           (a!9 (ite (or (= N #b0) (= F1 #b0))
                     (= F1 #b1)
                     (or (= ((_ extract 4 1) A1) #x0) (not a!8))))
           (a!16 (or (not (= B1 #b0))
                     (not ((_ bit2bool 1) O1))
                     (not (= P #b1))
                     (not (= ((_ extract 15 12) H1) ((_ extract 16 13) H1)))
                     (not (= ((_ extract 23 13) H1) ((_ extract 27 17) H1)))
                     a!15))
           (a!17 (or (not (= B1 #b0))
                     (not ((_ bit2bool 1) O1))
                     (not (= ((_ extract 1 1) N1) #b1))
                     (not (= ((_ extract 15 12) H1) ((_ extract 16 13) H1)))
                     (not (= ((_ extract 23 13) H1) ((_ extract 27 17) H1)))
                     a!15))
           (a!20 (or (= ((_ extract 1 1) O1) #b0)
                     (not (= N1 #b001))
                     (not (= B1 #b0))
                     (not (= ((_ extract 27 14) H1) ((_ extract 26 13) H1)))
                     a!19))
           (a!23 (or (not ((_ bit2bool 2) O1))
                     (= B1 #b1)
                     a!22
                     (not (= ((_ extract 16 8) H1) ((_ extract 12 4) H1)))
                     (not (= ((_ extract 15 7) H1) ((_ extract 16 8) H1)))))
           (a!26 (or (not (= B1 #b0))
                     (not ((_ bit2bool 1) O1))
                     (not (= ((_ extract 2 2) L) #b1))
                     ((_ bit2bool 1) L)
                     (= X #b1)
                     a!15
                     (not (= ((_ extract 12 4) H1) ((_ extract 8 0) H1)))))
           (a!29 (ite a!28
                      (= ((_ extract 1 1) (bvadd #b11111 A1)) #b1)
                      (= ((_ extract 1 1) A1) #b1)))
           (a!30 (ite (or (= N #b0) (not a!28))
                      (= ((_ extract 1 1) A1) #b1)
                      (= ((_ extract 1 1) (bvadd #b11111 A1)) #b1)))
           (a!34 (= (ite (or (= N #b0) (not a!28)) A1 (bvadd #b11111 A1))
                    #b00001)))
     (let ((a!31 (or (not ((_ bit2bool 0) O1))
                     (not (= ((_ extract 1 1) W) #b1))
                     a!30)))
     (let ((a!36 (and (or (= ((_ extract 2 2) O1) #b0)
                          (= ((_ extract 0 0) A1) #b1))
                      (= L1 #b0)
                      (or (not (= G1 #b1)) (not (= T #b1)))
                      (or (not (= G1 #b1)) (not (= H #b1)))
                      (or (= N #b0) (= N1 #b000))
                      (or (not (= B1 #b0))
                          (not ((_ bit2bool 0) D1))
                          (not (= U #b1))
                          ((_ bit2bool 0) F1))
                      (or (not (= T1 #b1)) (not (= A1 #b00000)) (not (= N #b1)))
                      a!1
                      (or (= Q1 #b1) (= J #b1) (= W #b00) (not (= G1 #b1)))
                      (or (= U #b0)
                          (not ((_ bit2bool 0) D1))
                          ((_ bit2bool 0) F1)
                          (not (= O #b0)))
                      a!2
                      (or (not (= H #b1)) (not (= O #b0)))
                      (or (= U #b0)
                          (not (= N1 #b001))
                          (not (= X #b0))
                          (= F1 #b1))
                      (or (not (= T #b1)) (= ((_ extract 0 0) N1) #b1))
                      a!5
                      (or ((_ bit2bool 0) X) (not (= H #b1)))
                      a!6
                      (or (= W #b00) (= ((_ extract 1 1) W) #b1))
                      (or ((_ bit2bool 2) N1)
                          (not ((_ bit2bool 0) N1))
                          ((_ bit2bool 1) N1)
                          (not (= G #b0)))
                      (or (= W #b00) (not (= T #b1)))
                      (or ((_ bit2bool 0) T1) a!3)
                      (or (= J #b1)
                          (not (= B1 #b0))
                          (not (= V1 #b1))
                          (not (= N #b1))
                          (not (= G1 #b0)))
                      (or (= U #b0)
                          ((_ bit2bool 2) A1)
                          ((_ bit2bool 4) A1)
                          (= F1 #b1)
                          ((_ bit2bool 0) A1)
                          ((_ bit2bool 3) A1)
                          ((_ bit2bool 1) A1))
                      (or ((_ bit2bool 0) T1) (= U #b0) (= F1 #b1))
                      (or (not ((_ bit2bool 1) O1)) (not (= V1 #b1)))
                      (or ((_ bit2bool 2) A1)
                          ((_ bit2bool 4) A1)
                          ((_ bit2bool 0) A1)
                          ((_ bit2bool 3) A1)
                          ((_ bit2bool 1) A1)
                          (not ((_ bit2bool 0) I1)))
                      (or (= ((_ extract 1 1) O1) #b0)
                          ((_ bit2bool 2) A1)
                          ((_ bit2bool 4) A1)
                          ((_ bit2bool 0) A1)
                          ((_ bit2bool 3) A1)
                          ((_ bit2bool 1) A1))
                      (or (= A1 #b00000) (not (= V1 #b1)) (not (= O #b0)))
                      (or (not (= H #b1)) (not ((_ bit2bool 0) J)))
                      (or (not (= G #b1)) (= N1 #b001))
                      (or (not ((_ bit2bool 0) I1)) (= N1 #b000))
                      (or (= ((_ extract 1 1) O1) #b0) (not (= S1 #b0)))
                      a!7
                      (or (not ((_ bit2bool 32) M1)) (= S1 #b1))
                      (or (= ((_ extract 1 1) O1) #b0)
                          (not (= G1 #b1))
                          (not (= T1 #b0)))
                      (or (= T1 #b1) (not (= K #b0)))
                      (or (not (= N #b1)) (not (= X #b0)) (= U #b0) (= F1 #b1))
                      (or (= P #b0) (= ((_ extract 0 0) N1) #b1))
                      (or (= A1 #b00000) (not (= T #b1)))
                      (or (= ((_ extract 0 0) O1) #b0) (= F1 #b1))
                      (or (not (= B1 #b0))
                          ((_ bit2bool 12) H1)
                          (= ((_ extract 0 0) O1) #b0))
                      (or (= ((_ extract 1 1) O1) #b0)
                          (not (= B1 #b0))
                          ((_ bit2bool 13) H1)
                          ((_ bit2bool 12) H1)
                          ((_ bit2bool 16) H1))
                      (or ((_ bit2bool 14) H1)
                          ((_ bit2bool 17) H1)
                          ((_ bit2bool 20) H1)
                          ((_ bit2bool 13) H1)
                          (not ((_ bit2bool 2) O1))
                          (not (= X1 #b1))
                          ((_ bit2bool 12) H1)
                          ((_ bit2bool 16) H1))
                      (or (not (= X #b0)) (not (= N1 #b010)) a!9)
                      a!10
                      (or (not (= N1 #b001))
                          (not (= X #b0))
                          (not ((_ bit2bool 1) O1))
                          (= F1 #b1))
                      (or (not (= X #b0))
                          (not ((_ bit2bool 1) O1))
                          (not (= N #b1))
                          ((_ bit2bool 0) I1))
                      a!11
                      a!12
                      a!13
                      (or (not (= B1 #b0))
                          (not ((_ bit2bool 1) O1))
                          (not (= P #b1))
                          a!14)
                      a!16
                      a!17
                      a!18
                      a!20
                      a!21
                      a!23
                      (or (not (= N #b1)) (not (= J #b1)) (= U #b0) (= F1 #b1))
                      (or (not (= N1 #b010)) (not (= J #b1)) (= F1 #b1))
                      (or (not (= N1 #b001))
                          (not ((_ bit2bool 1) O1))
                          (not (= J #b1))
                          (= F1 #b1))
                      (or (not (= N1 #b010)) (= F1 #b1) (not (= O #b0)))
                      (or (= ((_ extract 1 1) O1) #b0)
                          (= U #b0)
                          (= F1 #b1)
                          (= ((_ extract 2 2) N1) #b1))
                      (or (not (= N1 #b001))
                          (not ((_ bit2bool 1) O1))
                          (= F1 #b1)
                          (not (= O #b0)))
                      (or (not ((_ bit2bool 1) O1))
                          (not (= N #b1))
                          (not (= J #b1))
                          ((_ bit2bool 0) I1))
                      (or (not ((_ bit2bool 1) O1))
                          (not (= N #b1))
                          (not (= O #b0))
                          ((_ bit2bool 0) I1))
                      (or (not ((_ bit2bool 0) O1)) (= Q1 #b1))
                      (or (not (= B1 #b0))
                          ((_ bit2bool 11) H1)
                          (not ((_ bit2bool 0) O1)))
                      a!24
                      (or (not (= B1 #b0))
                          (not ((_ bit2bool 0) O1))
                          (not ((_ bit2bool 10) H1)))
                      a!25
                      a!26
                      (or (not (= B1 #b0))
                          (not ((_ bit2bool 0) O1))
                          (not ((_ bit2bool 16) H1)))
                      (or (= ((_ extract 0 0) O1) #b0) (not (= G1 #b0)))
                      (or (not ((_ bit2bool 1) O1)) (not (= G1 #b0)))
                      (or (not ((_ bit2bool 2) O1)) (not (= G1 #b0)))
                      (or (not ((_ bit2bool 1) O1)) (= Q1 #b1))
                      (or (not ((_ bit2bool 0) O1)) (not (= C1 #b0)))
                      (or (not ((_ bit2bool 1) O1)) (not (= C1 #b0)))
                      a!27
                      (or (not (= N #b1))
                          (= ((_ extract 0 0) O1) #b0)
                          ((_ bit2bool 0) I1)
                          a!29)
                      a!31
                      (or (= A1 #b00000) (not (= T1 #b0)) (not (= N #b0)))
                      (or (= U #b0)
                          (not (= X #b0))
                          (not (= N1 #b100))
                          (= F1 #b1))
                      a!32
                      (or (not ((_ bit2bool 2) O1)) (= Q1 #b1))
                      a!33
                      (or (not ((_ bit2bool 34) M1)) (= S1 #b1))
                      (or (not (= V1 #b0))
                          (not ((_ bit2bool 2) O1))
                          (not (= S1 #b0)))
                      (or (not (= A1 #b00001))
                          (not (= Q1 #b1))
                          (not (= K1 #b0))
                          (= U #b0)
                          (not (= B1 #b0))
                          (= F1 #b1)
                          (= ((_ extract 0 0) W) #b1))
                      (or (not ((_ bit2bool 1) O1))
                          (= S #b0)
                          (not (= Z Y))
                          (= F1 #b1)
                          (not (= O #b0))
                          (= ((_ extract 0 0) N1) #b1))
                      (or (not ((_ bit2bool 2) O1)) (not (= T1 #b0)))
                      (or (not ((_ bit2bool 35) M1)) (= S1 #b1))
                      (or (not (= V1 #b1)) (= ((_ extract 2 2) O1) #b0))
                      (or (not (= N1 #b010))
                          (not ((_ bit2bool 1) O1))
                          (not a!34))
                      (or (not ((_ bit2bool 2) N1)) (not ((_ bit2bool 1) N1)))
                      (or (not ((_ bit2bool 0) O1))
                          (= ((_ extract 0 0) A1) #b1))
                      a!35)))
       (= (INV!slice!1 A
                       B
                       C
                       D
                       E
                       F
                       G
                       H
                       I
                       J
                       K
                       L
                       M
                       N
                       O
                       P
                       Q
                       R
                       S
                       T
                       U
                       V
                       W
                       X
                       Y
                       Z
                       A1
                       B1
                       C1
                       D1
                       E1
                       F1
                       G1
                       H1
                       I1
                       J1
                       K1
                       L1
                       M1
                       N1
                       O1
                       P1
                       Q1
                       R1
                       S1
                       T1
                       U1
                       V1
                       W1
                       X1
                       Y1
                       Z1
                       A2
                       B2
                       C2
                       D2)
          a!36)))))
     :weight 0))
